32 89 29 76 75 15 35 17 2 87 93 22 4 50 41 20 92 26 60 5 77 67 39 13 99 69 42 18 86 64 73 6 90 48 58 44 68 71 45 43 27 81 78 40 25 72 98 96 8 66 33 88 59 28 3 91 9 61 55 57 56 36 19 70 95 0 79 38 54 65 37 10 49 31 83 16 46 51 80 11 7 63 21 97 23 47 1 30 34 84 82 85 74 53 62 24 14 12 94 52 

